proyfinal/src/viki/013/experimentInOfficeAgust.take6.output/ad2e1662-73db-4828-bf80-913e5b34512a.als.out
Reading from standard input... Use '--help' for help.
============================[ Problem Statistics ]=============================
|                                                                             |
|  Number of variables:         87638                                         |
|  Number of clauses:          161767                                         |
|  Parse time:                   0.04 s                                       |
|                                                                             |
============================[ Search Statistics ]==============================
| Conflicts |          ORIGINAL         |          LEARNT          | Progress |
|           |    Vars  Clauses Literals |    Limit  Clauses Lit/Cl |          |
===============================================================================
|       100 |   63627   109744   274209 |    40239      100     13 | 27.398 % |
|       250 |   63627   109744   274209 |    44263      250     21 | 27.398 % |
|       475 |   63627   109744   274209 |    48689      475     48 | 27.398 % |
|       812 |   52102    76678   192898 |    53558      807     56 | 40.549 % |
|      1318 |   52044    76406   192273 |    58914     1308     50 | 40.615 % |
|      2077 |   51946    76006   191357 |    64806     2058     51 | 40.727 % |
|      3216 |   51650    75075   189105 |    71286     3184     57 | 41.064 % |
|      4924 |   51265    73909   186331 |    78415     4878     55 | 41.504 % |
|      7486 |   50740    72214   182160 |    86256     7404     56 | 42.103 % |
|     11330 |   50534    70420   177819 |    94882    10834     54 | 42.338 % |
|     17096 |   50136    68861   174071 |   104370    14815     53 | 42.792 % |
===============================================================================
restarts              : 78
conflicts             : 22198          (7008 /sec)
decisions             : 99888          (0.00 % random) (31535 /sec)
propagations          : 33856859       (10688645 /sec)
conflict literals     : 1121189        (47.60 % deleted)
Memory used           : 28.61 MB
CPU time              : 3.16755 s

UNSATISFIABLE
